33005
1 0 1 0 1 0 1 1 1 0 1 1 1 1 1 1 1 1 1 1 1 1 0 1 1 0 0 1 1 0 
18 19 21 27 2 12 15 27 27 28 4 28 13 13 28 18 13 20 27 0 18 16 23 24 10 18 27 19 4 2 19 19 4 16 27 6 20 8 24 15 18 8 6 4 8 19 13 21 19 14 24 16 24 16 8 6 11 8 18 7 4 0 7 8 13 11 23 14 28 12 18 12 19 20 23 23 20 23 8 16 10 0 8 7 4 13 19 2 27 7 28 6 11 11 2 13 27 6 0 28 28 15 12 18 4 0 4 24 27 13 19 4 27 12 12 8 28 7 17 8 14 11 17 19 4 16 2 11 19 17 28 24 11 20 23 8 13 13 28 10 12 18 11 11 7 2 24 15 27 11 24 17 23 0 8 11 2 15 13 13 13 27 10 24 23 27 23 4 13 21 23 20 19 14 4 2 0 10 4 10 2 21 2 19 12 8 28 23 0 21 2 21 6 4 7 12 7 15 10 19 